c ---- [ banner ] ------------------------------------------------------------
c
c Kissat SAT Solver
c 
c Copyright (c) 2021-2024 Armin Biere University of Freiburg
c Copyright (c) 2019-2021 Armin Biere Johannes Kepler University Linz
c 
c Version 4.0.1 43f02cf3e992cb44653b35e5cb26f93281552ae0
c gcc (Ubuntu 13.2.0-23ubuntu4) 13.2.0 -W -Wall -O3 -DNDEBUG
c Thu Sep 12 12:27:46 CEST 2024 Linux abryzen9 6.8.0-41-generic x86_64
c
c ---- [ parsing ] -----------------------------------------------------------
c
c opened and reading DIMACS file:
c
c   /data/artifact/AMulet2.0_artifact/exp4/cnf_mfs_64/64_64_U1_WT_HCA_Multgen_mfs.cnf
c
c parsed 'p cnf 36429 141699' header
c closing input after reading 2759394 bytes (3 MB)
c finished parsing after 0.02 seconds
c
c ---- [ options ] -----------------------------------------------------------
c
c --stable=0                       (different from default '1')
c
c ---- [ solving ] -----------------------------------------------------------
c
c  seconds switched rate     size/glue tier1  binary           remaining
c         MB reductions conflicts size  tier2     irredundant
c          level restarts redundant glue  trail           variables
c
c *  0.02 11 0 0 0  0 0   0   0 0.0 0 0 0 0 0% 29245 112452 36426 100%
c (  0.04 13 0 0 0  0 0   0   0 0.0 0 0 0 0 0% 29245 112452 36426 100%
c .  0.04 13 0 0 0  0 0   0   0 0.0 0 0 0 0 0% 29241 112452 36426 100%
c c  0.10 22 0 0 0  0 0   0   0 0.0 0 0 0 0 0% 36466 98220 32813 90%
c d  0.11 22 0 0 0  0 0   0   0 0.0 0 0 0 0 0% 29240 98220 32813 90%
c =  0.15 22 0 0 0  0 0   0   0 0.0 0 0 0 0 0% 29648 98220 32537 89%
c d  0.16 22 0 0 0  0 0   0   0 0.0 0 0 0 0 0% 29096 98220 32537 89%
c f  0.23 20 0 0 0  0 0   0   0 0.0 0 0 0 0 0% 32132 93374 34343 94%
c e  0.33 29 0 0 0  0 0   0   0 0.0 0 0 0 0 0% 10297 107555 23163 64%
c )  0.33 29 0 0 0  0 0   0   0 0.0 0 0 0 0 0% 10297 107555 23163 64%
c {  0.35 29 0 0 0  0 0   0   0 0.0 0 0 2 6 0% 10297 107555 23163 64%
c -  0.47 29 114 0 1 213 25 1000 703 2.3 10 5 2 7 17% 10366 107554 23163 64%
c -  0.65 29 291 0 2 401 38 2000 1461 3.8 20 5 2 8 22% 10397 107551 23163 64%
c c  0.78 24 338 0 2 476 44 2503 1877 4.0 21 5 2 8 22% 10444 107513 23156 64%
c d  0.78 24 338 0 2 476 44 2503 1867 4.0 21 5 2 8 22% 10430 107513 23156 64%
c u  0.79 24 338 0 2 476 44 2503 1472 4.0 21 5 2 8 22% 10436 107513 23156 64%
c v  0.80 24 338 0 2 476 44 2503 1192 4.0 21 5 2 8 22% 10437 107513 23156 64%
c w  0.82 24 338 0 2 476 44 2503 1191 4.0 21 5 2 8 22% 10437 107513 23156 64%
c x  0.84 28 338 0 2 476 44 2503 1191 4.0 21 5 2 8 22% 10546 107298 23156 64%
c =  0.89 28 338 0 2 476 44 2503 1191 4.0 21 5 2 8 22% 10842 107298 23008 63%
c
c  seconds   switched   rate       size/glue tier1    binary           remaining
c         MB  reductions conflicts       size  tier2      irredundant
c           level restarts    redundant    glue   trail           variables
c
c d  0.89 28 338 0 2 476 44 2503 1189 4.0 21 5 2 8 22% 10546 107298 23008 63%
c t  0.90 28 338 0 2 476 44 2503 1189 4.0 21 5 2 8 22% 10535 107298 23008 63%
c f  0.92 28 338 0 2 476 44 2503 1189 4.0 21 5 2 8 22% 11305 105853 23680 65%
c u  0.94 28 338 0 2 476 44 2503 1146 4.0 21 5 2 8 22% 11306 105853 23680 65%
c v  0.95 28 338 0 2 476 44 2503 1110 4.0 21 5 2 8 22% 11306 105853 23680 65%
c w  0.98 28 338 0 2 476 44 2503 1091 4.0 21 5 2 8 22% 11306 105853 23680 65%
c x  0.99 28 338 0 2 476 44 2503 1091 4.0 21 5 2 8 22% 11306 105845 23680 65%
c =  1.04 28 338 0 2 476 44 2503 1091 4.0 21 5 2 8 22% 11656 105845 23505 65%
c d  1.04 28 338 0 2 476 44 2503 1089 4.0 21 5 2 8 22% 11249 105845 23505 65%
c f  1.07 28 338 0 2 476 44 2503 1089 4.0 21 5 2 8 22% 11666 105219 23714 65%
c -  1.24 28 339 0 3 588 41 3414 1663 4.0 22 6 2 9 25% 11700 105213 23714 65%
c -  1.57 28 381 0 4 829 39 5146 2820 4.2 24 6 2 10 25% 11768 105211 23714 65%
c -  1.98 28 356 0 5 1044 37 7146 3883 3.7 27 7 2 8 25% 11862 105209 23714 65%
c c  2.11 28 352 0 5 1072 35 7708 4391 3.7 27 7 2 8 26% 11877 105099 23688 65%
c d  2.12 28 352 0 5 1072 35 7708 4387 3.7 27 7 2 8 26% 11825 105099 23688 65%
c u  2.14 28 352 0 5 1072 35 7708 3520 3.7 27 7 2 8 26% 11839 105099 23688 65%
c v  2.16 28 352 0 5 1072 35 7708 3054 3.7 27 7 2 8 26% 11839 105099 23688 65%
c w  2.19 30 352 0 5 1072 35 7708 3046 3.7 27 7 2 8 26% 11839 105099 23688 65%
c =  2.30 30 352 0 5 1072 35 7708 3046 3.7 27 7 2 8 26% 12891 105099 23162 64%
c d  2.30 30 352 0 5 1072 35 7708 3018 3.7 27 7 2 8 26% 11715 105099 23159 64%
c
c  seconds   switched    rate       size/glue tier1    binary           remaining
c         MB  reductions  conflicts       size  tier2      irredundant
c           level  restarts    redundant    glue   trail           variables
c
c t  2.32 30 352 0 5 1072 35 7708 3018 3.7 27 7 2 8 26% 11693 105099 23159 64%
c f  2.35 30 352 0 5 1072 35 7708 3018 3.7 27 7 2 8 26% 13924 101749 24276 67%
c u  2.42 30 352 0 5 1072 35 7708 2789 3.7 27 7 2 8 26% 13929 101749 24276 67%
c v  2.43 30 352 0 5 1072 35 7708 2691 3.7 27 7 2 8 26% 13929 101749 24276 67%
c w  2.46 30 352 0 5 1072 35 7708 2684 3.7 27 7 2 8 26% 13929 101749 24276 67%
c x  2.49 30 352 0 5 1072 35 7708 2684 3.7 27 7 2 8 26% 13965 96856 24276 67%
c =  2.61 30 352 0 5 1072 35 7708 2684 3.7 27 7 2 8 26% 14571 96856 23973 66%
c d  2.61 30 352 0 5 1072 35 7708 2669 3.7 27 7 2 8 26% 13877 96856 23973 66%
c t  2.62 30 352 0 5 1072 35 7708 2669 3.7 27 7 2 8 26% 13829 96856 23973 66%
c f  2.67 30 352 0 5 1072 35 7708 2669 3.7 27 7 2 8 26% 13847 96829 23982 66%
c -  2.93 30 370 0 6 1166 33 9384 3518 3.4 28 8 2 9 26% 13935 96817 23982 66%
c o  3.03 30 380 0 6 1206 33 10146 4206 3.5 28 8 2 9 26% 13960 96817 23982 66%
c -  3.32 30 388 0 7 1322 32 11835 4993 3.6 29 8 2 9 26% 14005 96811 23982 66%
c s  3.41 30 407 0 7 1345 32 12512 5551 3.6 29 8 2 9 26% 14050 95419 23982 66%
c e  3.50 30 407 0 7 1345 32 12512 5551 3.6 29 8 2 9 26% 11722 97021 22269 61%
c s  3.51 30 407 0 7 1345 32 12512 5551 3.6 29 8 2 9 26% 11724 95892 22269 61%
c e  3.52 30 407 0 7 1345 32 12512 5551 3.6 29 8 2 9 26% 11716 95900 22265 61%
c ^  3.52 30 407 0 7 1345 32 12512 5551 3.6 29 8 2 9 26% 11716 95900 22265 61%
c -  3.73 30 401 0 8 1426 30 14480 5840 3.6 28 8 2 8 26% 11784 95900 22265 61%
c d  3.95 30 413 0 8 1520 31 15786 6977 3.8 29 8 2 8 26% 11621 95897 22135 61%
c
c  seconds   switched    rate        size/glue tier1    binary          remaining
c         MB  reductions   conflicts       size  tier2      irredundant
c           level  restarts     redundant    glue   trail          variables
c
c u  3.97 30 413 0 8 1520 31 15786 5474 3.8 29 8 2 8 26% 11642 95897 22135 61%
c v  4.00 30 413 0 8 1520 31 15786 4775 3.8 29 8 2 8 26% 11642 95897 22135 61%
c w  4.04 30 413 0 8 1520 31 15786 4773 3.8 29 8 2 8 26% 11642 95897 22135 61%
c x  4.07 30 413 0 8 1520 31 15786 4773 3.8 29 8 2 8 26% 11685 94141 22135 61%
c =  4.19 30 413 0 8 1520 31 15786 4773 3.8 29 8 2 8 26% 13213 94141 21371 59%
c d  4.20 30 413 0 8 1520 31 15786 4699 3.8 29 8 2 8 26% 11353 94141 21371 59%
c t  4.21 30 413 0 8 1520 31 15786 4699 3.8 29 8 2 8 26% 11334 94141 21371 59%
c f  4.25 30 413 0 8 1520 31 15786 4699 3.8 29 8 2 8 26% 11337 94132 21374 59%
c u  4.31 30 413 0 8 1520 31 15786 4324 3.8 29 8 2 8 26% 11342 94132 21374 59%
c v  4.33 30 413 0 8 1520 31 15786 4218 3.8 29 8 2 8 26% 11342 94132 21374 59%
c w  4.39 30 413 0 8 1520 31 15786 4210 3.8 29 8 2 8 26% 11342 94132 21374 59%
c x  4.42 30 413 0 8 1520 31 15786 4210 3.8 29 8 2 8 26% 11356 92435 21374 59%
c =  4.54 30 413 0 8 1520 31 15786 4210 3.8 29 8 2 8 26% 12776 92431 20664 57%
c d  4.55 30 413 0 8 1520 31 15786 4193 3.8 29 8 2 8 26% 11030 92431 20664 57%
c t  4.56 30 413 0 8 1520 31 15786 4193 3.8 29 8 2 8 26% 11025 92431 20664 57%
c f  4.57 30 413 0 8 1520 31 15786 4193 3.8 29 8 2 8 26% 11024 92417 20670 57%
c -  4.77 30 396 0 9 1594 30 17309 4860 3.8 28 8 2 8 26% 11069 92415 20670 57%
c -  5.01 30 383 0 10 1688 28 20309 6679 3.7 26 7 2 8 25% 11145 92413 20670 57%
c o  5.02 30 382 0 10 1689 28 20408 6768 3.7 26 7 2 8 25% 11148 92413 20670 57%
c -  5.44 30 367 0 11 1859 28 23472 8330 3.8 27 7 2 8 25% 11222 92405 20670 57%
c
c  seconds   switched     rate        size/glue tier1    binary          remaining
c         MB   reductions   conflicts       size  tier2      irredundant
c           level   restarts     redundant    glue   trail          variables
c
c s  5.70 30 365 0 11 1985 28 25014 9750 3.8 27 7 2 8 25% 11247 91617 20670 57%
c e  5.80 30 365 0 11 1985 28 25014 9750 3.8 27 7 2 8 25% 9825 95250 17990 49%
c s  5.81 30 365 0 11 1985 28 25014 9750 3.8 27 7 2 8 25% 9872 91630 17990 49%
c e  5.84 30 365 0 11 1985 28 25014 9750 3.8 27 7 2 8 25% 9849 91659 17974 49%
c ^  5.85 30 365 0 11 1985 28 25014 9750 3.8 27 7 2 8 25% 9849 91659 17974 49%
c -  6.11 30 350 0 12 2063 27 26788 8420 3.7 26 7 2 7 25% 9861 91659 17974 49%
c d  6.14 30 348 0 12 2074 27 26912 8531 3.7 26 7 2 7 25% 9762 91659 17909 49%
c u  6.17 30 348 0 12 2074 27 26912 6973 3.7 26 7 2 7 25% 9778 91659 17909 49%
c v  6.20 30 348 0 12 2074 27 26912 5980 3.7 26 7 2 7 25% 9778 91659 17909 49%
c w  6.21 30 348 0 12 2074 27 26912 5974 3.7 26 7 2 7 25% 9778 91659 17909 49%
c x  6.26 30 348 0 12 2074 27 26912 5974 3.7 26 7 2 7 25% 9808 90196 17909 49%
c =  6.41 30 348 0 12 2074 27 26912 5974 3.7 26 7 2 7 25% 11458 90188 17084 47%
c d  6.42 30 348 0 12 2074 27 26912 5858 3.7 26 7 2 7 25% 9707 90188 17084 47%
c t  6.43 30 348 0 12 2074 27 26912 5858 3.7 26 7 2 7 25% 9674 90188 17084 47%
c f  6.49 30 348 0 12 2074 27 26912 5858 3.7 26 7 2 7 25% 9672 90106 17102 47%
c u  6.51 30 348 0 12 2074 27 26912 5544 3.7 26 7 2 7 25% 9673 90106 17102 47%
c v  6.53 30 348 0 12 2074 27 26912 5426 3.7 26 7 2 7 25% 9673 90106 17102 47%
c w  6.53 30 348 0 12 2074 27 26912 5423 3.7 26 7 2 7 25% 9673 90106 17102 47%
c x  6.60 30 348 0 12 2074 27 26912 5422 3.7 26 7 2 7 25% 9692 84322 17102 47%
c =  6.76 30 348 0 12 2074 27 26912 5422 3.7 26 7 2 7 25% 11478 84322 16209 44%
c
c  seconds   switched     rate        size/glue tier1    binary         remaining
c         MB   reductions   conflicts       size  tier2     irredundant
c           level   restarts     redundant    glue   trail         variables
c
c d  6.77 30 348 0 12 2074 27 26912 5312 3.7 26 7 2 7 25% 9658 84322 16209 44%
c t  6.78 30 348 0 12 2074 27 26912 5312 3.7 26 7 2 7 25% 9610 84322 16209 44%
c f  6.81 30 348 0 12 2074 27 26912 5312 3.7 26 7 2 7 25% 9619 84270 16221 45%
c -  7.19 30 326 0 13 2276 26 30252 7408 3.5 25 7 2 7 25% 9648 84267 16221 45%
c -  7.56 30 316 0 14 2482 25 33857 9490 3.4 24 7 2 7 25% 9690 84265 16221 45%
c -  7.97 30 303 0 15 2714 24 37598 11177 3.4 24 7 2 7 25% 9748 84264 16221 45%
c o  8.16 30 295 0 15 2808 23 40792 14007 3.3 23 7 2 7 25% 9784 84262 16221 45%
c c  8.31 30 293 0 15 2880 23 41239 14431 3.3 23 7 2 7 25% 9823 84070 16179 44%
c d  8.31 30 293 0 15 2880 23 41239 14294 3.3 23 7 2 7 25% 9703 84070 16155 44%
c u  8.35 30 293 0 15 2880 23 41239 11821 3.3 23 7 2 7 25% 9721 84070 16155 44%
c v  8.39 30 293 0 15 2880 23 41239 11134 3.3 23 7 2 7 25% 9721 84070 16155 44%
c w  8.41 30 293 0 15 2880 23 41239 11132 3.3 23 7 2 7 25% 9721 84070 16155 44%
c x  8.46 30 293 0 15 2880 23 41239 11132 3.3 23 7 2 7 25% 9723 79054 16155 44%
c =  8.61 30 293 0 15 2880 23 41239 11132 3.3 23 7 2 7 25% 9753 79054 16140 44%
c d  8.61 30 293 0 15 2880 23 41239 11125 3.3 23 7 2 7 25% 9718 79054 16138 44%
c t  8.63 30 293 0 15 2880 23 41239 11125 3.3 23 7 2 7 25% 9708 79054 16138 44%
c u  8.68 30 293 0 15 2880 23 41239 10733 3.3 23 7 2 7 25% 9713 79054 16138 44%
c v  8.72 30 293 0 15 2880 23 41239 9957 3.3 23 7 2 7 25% 9717 79054 16138 44%
c w  8.75 30 293 0 15 2880 23 41239 9944 3.3 23 7 2 7 25% 9717 79054 16138 44%
c x  8.79 30 293 0 15 2880 23 41239 9944 3.3 23 7 2 7 25% 9725 78206 16138 44%
c
c  seconds   switched     rate        size/glue tier1    binary          remaining
c         MB   reductions   conflicts       size  tier2      irredundant
c           level   restarts     redundant    glue   trail          variables
c
c =  8.95 30 293 0 15 2880 23 41239 9944 3.3 23 7 2 7 25% 10921 78206 15540 43%
c d  8.96 30 293 0 15 2880 23 41239 9618 3.3 23 7 2 7 25% 9619 78206 15540 43%
c t  8.97 30 293 0 15 2880 23 41239 9618 3.3 23 7 2 7 25% 9604 78206 15540 43%
c -  9.01 30 293 0 16 2884 23 41470 8589 3.3 23 7 2 7 25% 9607 78206 15540 43%
c -  9.46 30 280 0 17 3143 23 45472 10789 3.3 23 7 2 6 25% 9625 78205 15540 43%
c -  9.96 30 276 0 18 3476 23 49596 12951 3.3 23 7 2 6 25% 9656 78204 15540 43%
c s 10.21 30 279 0 18 3643 23 52115 15147 3.3 22 7 2 6 24% 9696 73550 15540 43%
c e 10.29 30 279 0 18 3643 23 52115 15147 3.3 22 7 2 6 24% 8047 76720 14182 39%
c s 10.30 30 279 0 18 3643 23 52115 15147 3.3 22 7 2 6 24% 8063 75775 14182 39%
c e 10.31 30 279 0 18 3643 23 52115 15147 3.3 22 7 2 6 24% 8036 75817 14167 39%
c ^ 10.31 30 279 0 18 3643 23 52115 15147 3.3 22 7 2 6 24% 8036 75817 14167 39%
c - 10.59 30 273 0 19 3799 23 53838 12702 3.2 22 7 2 6 25% 8042 75817 14167 39%
c - 11.01 30 258 0 20 4105 22 58196 14740 3.1 21 7 2 6 25% 8065 75817 14167 39%
c c 11.11 30 256 0 20 4142 22 58875 15291 3.1 21 7 2 6 24% 8109 75632 14141 39%
c d 11.11 30 256 0 20 4142 22 58875 15184 3.1 21 7 2 6 24% 8057 75632 14141 39%
c u 11.16 30 256 0 20 4142 22 58875 12387 3.1 21 7 2 6 24% 8076 75632 14141 39%
c v 11.20 30 256 0 20 4142 22 58875 10918 3.1 21 7 2 6 24% 8078 75632 14141 39%
c w 11.22 30 256 0 20 4142 22 58875 10882 3.1 21 7 2 6 24% 8078 75632 14141 39%
c x 11.27 30 256 0 20 4142 22 58875 10879 3.1 21 7 2 6 24% 8083 75346 14141 39%
c t 11.49 30 256 0 20 4142 22 58875 10879 3.1 21 7 2 6 24% 8070 75346 14141 39%
c
c  seconds   switched     rate         size/glue tier1    binary         remaining
c         MB   reductions   conflicts        size  tier2     irredundant
c           level   restarts      redundant    glue   trail         variables
c
c f 11.53 30 256 0 20 4142 22 58875 10879 3.1 21 7 2 6 24% 8077 75286 14151 39%
c u 11.61 30 256 0 20 4142 22 58875 10489 3.1 21 7 2 6 24% 8083 75286 14151 39%
c v 11.63 30 256 0 20 4142 22 58875 10303 3.1 21 7 2 6 24% 8083 75286 14151 39%
c w 11.65 30 256 0 20 4142 22 58875 10290 3.1 21 7 2 6 24% 8083 75286 14151 39%
c x 11.73 30 256 0 20 4142 22 58875 10289 3.1 21 7 2 6 24% 8100 73996 14151 39%
c d 11.74 30 256 0 20 4142 22 58875 10287 3.1 21 7 2 6 24% 8098 73996 14150 39%
c t 11.75 30 256 0 20 4142 22 58875 10287 3.1 21 7 2 6 24% 8094 73996 14150 39%
c - 12.16 30 246 0 21 4367 22 62669 12319 3.0 21 7 2 6 25% 8109 73994 14150 39%
c - 12.83 30 238 0 22 4783 22 67251 14795 3.0 20 7 2 6 25% 8142 73991 14150 39%
c o 13.13 30 238 0 22 4984 21 70812 17959 2.9 20 7 2 6 25% 8177 73991 14150 39%
c - 13.22 30 235 0 23 5040 21 71943 16836 2.9 20 7 2 6 25% 8183 73990 14150 39%
c - 13.77 30 227 0 24 5405 21 76740 18588 2.9 20 7 2 6 25% 8232 73990 14150 39%
c d 14.39 30 223 0 24 5861 21 79954 21348 2.9 20 7 2 6 25% 8156 73990 14099 39%
c u 14.46 30 223 0 24 5861 21 79954 17884 2.9 20 7 2 6 25% 8190 73990 14099 39%
c v 14.51 30 223 0 24 5861 21 79954 16326 2.9 20 7 2 6 25% 8192 73990 14099 39%
c w 14.56 30 223 0 24 5861 21 79954 16326 2.9 20 7 2 6 25% 8192 73990 14099 39%
c x 14.63 30 223 0 24 5861 21 79954 16324 2.9 20 7 2 6 25% 8202 73259 14099 39%
c = 14.90 30 223 0 24 5861 21 79954 16324 2.9 20 7 2 6 25% 8566 73259 13917 38%
c d 14.91 30 223 0 24 5861 21 79954 16137 2.9 20 7 2 6 25% 8157 73259 13910 38%
c t 14.92 30 223 0 24 5861 21 79954 16137 2.9 20 7 2 6 25% 8133 73259 13910 38%
c
c  seconds   switched     rate         size/glue tier1    binary         remaining
c         MB   reductions   conflicts        size  tier2     irredundant
c           level   restarts      redundant    glue   trail         variables
c
c f 14.93 30 223 0 24 5861 21 79954 16137 2.9 20 7 2 6 25% 8134 73253 13911 38%
c c 14.97 30 223 0 24 5861 21 79954 16100 2.9 20 7 2 6 25% 8157 73133 13896 38%
c d 14.98 30 223 0 24 5861 21 79954 16100 2.9 20 7 2 6 25% 8127 73133 13896 38%
c u 15.03 30 223 0 24 5861 21 79954 15372 2.9 20 7 2 6 25% 8134 73133 13896 38%
c v 15.07 30 223 0 24 5861 21 79954 14790 2.9 20 7 2 6 25% 8135 73133 13896 38%
c w 15.16 30 223 0 24 5861 21 79954 14783 2.9 20 7 2 6 25% 8135 73133 13896 38%
c x 15.21 30 223 0 24 5861 21 79954 14782 2.9 20 7 2 6 25% 8139 73054 13896 38%
c = 15.52 30 223 0 24 5861 21 79954 14782 2.9 20 7 2 6 25% 8849 73018 13537 37%
c d 15.53 30 223 0 24 5861 21 79954 14551 2.9 20 7 2 6 25% 8095 73018 13537 37%
c t 15.54 30 223 0 24 5861 21 79954 14551 2.9 20 7 2 6 25% 8059 73018 13537 37%
c f 15.55 30 223 0 24 5861 21 79954 14551 2.9 20 7 2 6 25% 8061 72995 13541 37%
c - 15.79 30 220 0 25 5978 21 81638 12824 2.9 20 7 1 6 25% 8062 72995 13541 37%
c - 16.49 30 212 0 26 6457 21 86638 14676 2.9 20 7 1 6 26% 8079 72994 13541 37%
c - 17.20 30 206 0 27 6951 21 91740 16389 2.8 20 7 1 6 26% 8088 72994 13541 37%
c s 17.88 30 202 0 27 7467 21 95811 20155 2.8 20 7 1 6 26% 8102 70923 13541 37%
c e 17.97 30 202 0 27 7467 21 95811 20155 2.8 20 7 1 6 26% 5250 78565 11978 33%
c 2 17.97 30 202 0 27 7467 21 95811 20155 2.8 20 7 1 6 26% 5248 78565 11978 33%
c s 17.99 30 202 0 27 7467 21 95811 20155 2.8 20 7 1 6 26% 5267 77889 11978 33%
c e 18.00 30 202 0 27 7467 21 95811 20155 2.8 20 7 1 6 26% 5190 78104 11926 33%
c ^ 18.00 30 202 0 27 7467 21 95811 20155 2.8 20 7 1 6 26% 5190 78104 11926 33%
c
c  seconds   switched     rate         size/glue tier1    binary         remaining
c         MB   reductions   conflicts        size  tier2     irredundant
c           level   restarts      redundant    glue   trail         variables
c
c - 18.13 30 200 0 28 7513 21 96936 13828 2.8 20 7 1 5 26% 5191 78104 11926 33%
c - 18.71 30 197 0 29 7914 21 102227 15892 2.8 20 7 1 5 26% 5225 78102 11926 33%
c c 19.00 30 196 0 29 8119 21 104591 18012 2.8 20 7 1 5 26% 5279 77929 11893 33%
c d 19.00 30 196 0 29 8119 21 104591 17874 2.8 20 7 1 5 26% 5213 77929 11893 33%
c u 19.04 30 196 0 29 8119 21 104591 16004 2.8 20 7 1 5 26% 5219 77929 11893 33%
c v 19.10 30 196 0 29 8119 21 104591 13299 2.8 20 7 1 5 26% 5226 77929 11893 33%
c w 19.19 30 196 0 29 8119 21 104591 12940 2.8 20 7 1 5 26% 5227 77929 11893 33%
c = 19.56 30 196 0 29 8119 21 104591 12940 2.8 20 7 1 5 26% 5703 77929 11655 32%
c d 19.57 30 196 0 29 8119 21 104591 12629 2.8 20 7 1 5 26% 5187 77929 11655 32%
c t 19.58 30 196 0 29 8119 21 104591 12629 2.8 20 7 1 5 26% 5173 77929 11655 32%
c f 19.64 30 196 0 29 8119 21 104591 12629 2.8 20 7 1 5 26% 5220 77660 11678 32%
c u 19.70 30 196 0 29 8119 21 104591 12155 2.8 20 7 1 5 26% 5221 77660 11678 32%
c v 19.74 30 196 0 29 8119 21 104591 11648 2.8 20 7 1 5 26% 5221 77660 11678 32%
c w 19.81 30 196 0 29 8119 21 104591 11502 2.8 20 7 1 5 26% 5221 77660 11678 32%
c x 19.91 30 196 0 29 8119 21 104591 11485 2.8 20 7 1 5 26% 5225 76923 11678 32%
c = 20.29 30 196 0 29 8119 21 104591 11485 2.8 20 7 1 5 26% 5229 76923 11676 32%
c d 20.30 30 196 0 29 8119 21 104591 11485 2.8 20 7 1 5 26% 5224 76923 11676 32%
c - 20.62 30 193 0 30 8289 20 107612 12180 2.7 19 7 1 5 26% 5231 76923 11676 32%
c o 21.11 30 189 0 30 8665 20 110820 15189 2.7 19 7 1 5 26% 5246 76919 11676 32%
c - 21.49 30 187 0 31 8953 20 113089 14671 2.7 19 7 1 5 26% 5255 76918 11676 32%
c
c  seconds   switched     rate          size/glue tier1    binary         remaining
c         MB   reductions   conflicts         size  tier2     irredundant
c           level   restarts       redundant    glue   trail         variables
c
c - 21.94 30 182 0 32 9240 20 118656 16509 2.7 19 7 1 5 26% 5291 76917 11676 32%
c - 22.73 30 179 0 33 9833 20 124315 18066 2.7 19 7 1 5 26% 5297 76916 11676 32%
c - 23.50 30 175 0 34 10383 20 130059 19609 2.7 19 7 1 5 26% 5349 76906 11676 32%
c d 23.88 30 174 0 34 10627 20 132854 22023 2.7 20 7 1 5 26% 5303 76904 11648 32%
c u 23.93 30 174 0 34 10627 20 132854 19777 2.7 20 7 1 5 26% 5324 76904 11648 32%
c v 24.02 30 174 0 34 10627 20 132854 16448 2.7 20 7 1 5 26% 5331 76904 11648 32%
c w 24.10 30 174 0 34 10627 20 132854 16416 2.7 20 7 1 5 26% 5331 76904 11648 32%
c x 24.20 30 174 0 34 10627 20 132854 16377 2.7 20 7 1 5 26% 5367 73939 11648 32%
c = 24.61 30 174 0 34 10627 20 132854 16377 2.7 20 7 1 5 26% 5436 73939 11613 32%
c d 24.62 30 174 0 34 10627 20 132854 16291 2.7 20 7 1 5 26% 5342 73939 11611 32%
c t 24.63 30 174 0 34 10627 20 132854 16291 2.7 20 7 1 5 26% 5318 73939 11611 32%
c f 24.64 30 174 0 34 10627 20 132854 16291 2.7 20 7 1 5 26% 5322 73917 11613 32%
c c 24.67 30 174 0 34 10627 20 132854 16284 2.7 20 7 1 5 26% 5327 73901 11611 32%
c d 24.68 30 174 0 34 10627 20 132854 16284 2.7 20 7 1 5 26% 5323 73901 11611 32%
c u 24.72 30 174 0 34 10627 20 132854 15753 2.7 20 7 1 5 26% 5329 73901 11611 32%
c v 24.77 30 174 0 34 10627 20 132854 15111 2.7 20 7 1 5 26% 5329 73901 11611 32%
c w 24.90 30 174 0 34 10627 20 132854 14697 2.7 20 7 1 5 26% 5330 73901 11611 32%
c x 24.96 30 174 0 34 10627 20 132854 14697 2.7 20 7 1 5 26% 5330 73894 11611 32%
c = 25.37 30 174 0 34 10627 20 132854 14697 2.7 20 7 1 5 26% 5340 73894 11606 32%
c d 25.37 30 174 0 34 10627 20 132854 14688 2.7 20 7 1 5 26% 5325 73894 11606 32%
c
c  seconds   switched      rate          size/glue tier1    binary         remaining
c         MB   reductions    conflicts         size  tier2     irredundant
c           level   restarts        redundant    glue   trail         variables
c
c t 25.38 30 174 0 34 10627 20 132854 14688 2.7 20 7 1 5 26% 5324 73894 11606 32%
c f 25.39 30 174 0 34 10627 20 132854 14688 2.7 20 7 1 5 26% 5327 73882 11607 32%
c - 25.82 30 172 0 35 10926 20 135890 14784 2.7 20 7 1 5 26% 5334 73881 11607 32%
c - 26.53 30 169 0 36 11376 20 141807 17359 2.7 20 7 1 5 26% 5349 73881 11607 32%
c - 27.38 30 165 0 37 11923 20 147809 19595 2.7 20 7 1 5 26% 5358 73881 11607 32%
c - 28.30 30 165 0 38 12551 20 153891 21372 2.7 21 8 1 5 26% 5380 73881 11607 32%
c s 29.00 30 164 0 38 12987 20 157906 25122 2.7 21 8 1 5 26% 5391 73725 11607 32%
c e 29.13 30 164 0 38 12987 20 157906 25122 2.7 21 8 1 5 26% 2865 86555 9896 27%
c s 29.16 30 164 0 38 12987 20 157906 25122 2.7 21 8 1 5 26% 2892 85454 9896 27%
c e 29.18 30 164 0 38 12987 20 157906 25122 2.7 21 8 1 5 26% 2868 85604 9869 27%
c ^ 29.18 30 164 0 38 12987 20 157906 25122 2.7 21 8 1 5 26% 2868 85604 9869 27%
c - 29.46 29 163 0 39 13155 20 160056 16160 2.7 21 8 1 5 26% 2873 85602 9869 27%
c o 29.55 29 163 0 39 13210 20 160862 16904 2.7 21 8 1 5 26% 2875 85601 9869 27%
c d 30.08 29 162 0 39 13584 20 164863 20325 2.7 21 8 1 5 26% 2871 85601 9859 27%
c u 30.13 29 162 0 39 13584 20 164863 18069 2.7 21 8 1 5 26% 2873 85601 9859 27%
c v 30.20 29 162 0 39 13584 20 164863 14923 2.7 21 8 1 5 26% 2875 85601 9859 27%
c w 30.44 29 162 0 39 13584 20 164863 14485 2.7 21 8 1 5 26% 2875 85601 9859 27%
c = 30.92 29 162 0 39 13584 20 164863 14485 2.7 21 8 1 5 26% 3011 85585 9791 27%
c d 30.92 29 162 0 39 13584 20 164863 14386 2.7 21 8 1 5 26% 2855 85585 9791 27%
c t 30.93 29 162 0 39 13584 20 164863 14386 2.7 21 8 1 5 26% 2839 85585 9791 27%
c
c  seconds   switched      rate          size/glue tier1    binary        remaining
c         MB   reductions    conflicts         size  tier2     irredundant
c           level   restarts        redundant    glue   trail        variables
c
c f 31.05 29 162 0 39 13584 20 164863 14386 2.7 21 8 1 5 26% 2856 85384 9801 27%
c u 31.09 29 162 0 39 13584 20 164863 13890 2.7 21 8 1 5 26% 2856 85384 9801 27%
c v 31.13 29 162 0 39 13584 20 164863 13369 2.7 21 8 1 5 26% 2856 85384 9801 27%
c w 31.31 29 162 0 39 13584 20 164863 13151 2.7 21 8 1 5 26% 2856 85384 9801 27%
c x 31.41 29 162 0 39 13584 20 164863 13149 2.7 21 8 1 5 26% 2860 84563 9801 27%
c = 31.91 29 162 0 39 13584 20 164863 13149 2.7 21 8 1 5 26% 2890 84531 9782 27%
c d 31.92 29 162 0 39 13584 20 164863 13136 2.7 21 8 1 5 26% 2860 84531 9782 27%
c t 31.93 29 162 0 39 13584 20 164863 13136 2.7 21 8 1 5 26% 2858 84531 9782 27%
c - 32.14 29 161 0 40 13692 20 166300 12355 2.7 21 8 1 5 26% 2858 84530 9782 27%
c - 33.00 29 159 0 41 14222 20 172624 15572 2.7 21 8 1 5 27% 2859 84527 9782 27%
c - 33.81 29 157 0 42 14748 20 179028 18314 2.7 21 8 1 5 27% 2869 84527 9782 27%
c - 34.61 29 155 0 43 15288 20 185508 20077 2.7 21 8 1 5 27% 2888 84526 9782 27%
c i 34.94 29 154 0 43 15498 20 188028 22298 2.7 21 8 1 5 27% 2897 84526 9780 27%
c - 35.50 29 152 0 44 15860 19 192066 21512 2.7 21 8 1 5 27% 2905 84526 9780 27%
c - 36.37 29 149 0 45 16404 19 198699 22680 2.7 21 8 1 5 27% 2924 84523 9780 27%
c c 36.66 29 149 0 45 16596 19 200662 24472 2.6 21 8 1 5 27% 2942 84363 9747 27%
c d 36.66 29 149 0 45 16596 19 200662 24318 2.6 21 8 1 5 27% 2880 84359 9747 27%
c d 36.66 29 149 0 45 16596 19 200662 24313 2.6 21 8 1 5 27% 2876 84359 9745 27%
c u 36.72 29 149 0 45 16596 19 200662 22115 2.6 21 8 1 5 27% 2887 84359 9745 27%
c v 36.83 29 149 0 45 16596 19 200662 17621 2.6 21 8 1 5 27% 2895 84359 9745 27%
c
c  seconds   switched      rate          size/glue tier1    binary        remaining
c         MB   reductions    conflicts         size  tier2     irredundant
c           level   restarts        redundant    glue   trail        variables
c
c w 36.91 29 149 0 45 16596 19 200662 17467 2.6 21 8 1 5 27% 2894 84359 9745 27%
c x 36.99 29 149 0 45 16596 19 200662 17467 2.6 21 8 1 5 27% 2894 84354 9745 27%
c = 37.51 29 149 0 45 16596 19 200662 17467 2.6 21 8 1 5 27% 2938 84292 9716 27%
c d 37.51 29 149 0 45 16596 19 200662 17329 2.6 21 8 1 5 27% 2891 84291 9716 27%
c t 37.52 29 149 0 45 16596 19 200662 17329 2.6 21 8 1 5 27% 2882 84291 9716 27%
c u 37.58 29 149 0 45 16596 19 200662 16869 2.6 21 8 1 5 27% 2884 84291 9716 27%
c v 37.63 29 149 0 45 16596 19 200662 16125 2.6 21 8 1 5 27% 2885 84291 9716 27%
c w 37.74 29 149 0 45 16596 19 200662 15772 2.6 21 8 1 5 27% 2885 84291 9716 27%
c t 38.27 29 149 0 45 16596 19 200662 15772 2.6 21 8 1 5 27% 2884 84291 9716 27%
c i 38.62 29 148 0 45 16818 19 203527 18428 2.6 21 8 1 5 27% 2888 84285 9715 27%
c i 38.82 29 148 0 45 16947 19 204842 19607 2.6 21 8 1 5 27% 2893 84284 9714 27%
c - 38.84 29 147 0 46 16949 19 205409 16760 2.6 21 8 1 5 27% 2886 84284 9714 27%
c i 39.07 29 146 0 46 17097 19 207677 18891 2.6 21 8 1 5 27% 2890 84281 9712 27%
c i 39.48 29 145 0 46 17358 19 211632 22427 2.6 21 8 1 5 26% 2903 84281 9706 27%
c - 39.55 29 145 0 47 17391 19 212192 19284 2.6 21 8 1 5 26% 2893 84281 9706 27%
c i 39.69 29 144 0 47 17499 18 214090 20996 2.6 21 8 1 5 26% 2903 84281 9704 27%
c i 39.78 29 143 0 47 17570 18 215220 22020 2.6 21 8 1 5 26% 2911 84281 9703 27%
c i 39.82 29 143 0 47 17600 18 215774 22526 2.6 21 8 1 5 26% 2912 84281 9702 27%
c i 39.82 29 143 0 47 17600 18 215775 22525 2.6 21 8 1 5 26% 2912 84281 9701 27%
c i 39.82 29 143 0 47 17602 18 215785 22527 2.6 21 8 1 5 26% 2919 84281 9699 27%
c
c  seconds   switched      rate          size/glue tier1    binary        remaining
c         MB   reductions    conflicts         size  tier2     irredundant
c           level   restarts        redundant    glue   trail        variables
c
c i 39.97 29 141 0 47 17681 18 218530 24990 2.6 21 8 1 5 26% 2929 84281 9697 27%
c - 40.00 29 140 0 48 17700 18 219047 20798 2.6 21 8 1 5 26% 2910 84281 9697 27%
c i 40.01 29 140 0 48 17702 18 219081 20830 2.6 21 8 1 5 26% 2910 84281 9696 27%
c i 40.06 29 140 0 48 17754 18 219698 21393 2.6 21 8 1 5 26% 2910 84281 9695 27%
c i 40.06 29 140 0 48 17754 18 219701 21394 2.6 21 8 1 5 26% 2910 84281 9694 27%
c o 40.14 29 139 0 48 17867 18 220865 22450 2.6 21 8 1 5 26% 2918 84281 9694 27%
c - 40.38 29 135 0 49 18102 17 225976 21740 2.6 20 8 1 5 25% 2943 84280 9694 27%
c i 40.55 29 133 0 49 18327 17 228621 24071 2.5 20 8 1 5 24% 2961 84280 9693 27%
c i 40.66 29 131 0 49 18440 17 230454 25661 2.5 20 8 1 5 24% 2973 84280 9691 27%
c - 40.75 29 129 0 50 18496 16 232977 22272 2.5 20 8 1 5 24% 2974 84280 9691 27%
c i 40.75 29 129 0 50 18496 16 232991 22283 2.5 20 8 1 5 24% 2974 84280 9689 27%
c i 40.76 29 129 0 50 18505 16 233176 22454 2.5 20 8 1 5 24% 2975 84280 9688 27%
c i 40.77 29 129 0 50 18527 16 233618 22824 2.5 20 8 1 5 24% 2982 84280 9687 27%
c i 40.78 29 128 0 50 18535 16 234171 23322 2.5 20 8 1 5 24% 2985 84280 9685 27%
c i 40.78 29 128 0 50 18541 16 234290 23406 2.5 20 8 1 5 24% 2995 84280 9681 27%
c i 40.78 29 128 0 50 18541 16 234295 23406 2.5 20 8 1 5 24% 2996 84280 9678 27%
c } 40.78 29 128 0 50 18541 16 234297 23406 2.5 20 8 1 5 24% 2996 84280 9654 27%
c 0 40.78 29 128 0 50 18541 16 234297 23406 2.5 20 8 1 5 24% 2996 84280 9654 27%
c
c ---- [ result ] ------------------------------------------------------------
c
s UNSATISFIABLE
c
c ---- [ profiling ] ---------------------------------------------------------
c
c          28.48   69.83 %  search
c          28.48   69.83 %  focused
c          11.96   29.32 %  simplify
c          11.42   27.99 %  probe
c           5.60   13.72 %  sweep
c           4.00    9.80 %  vivify
c           0.73    1.80 %  eliminate
c           0.72    1.76 %  factor
c           0.51    1.25 %  congruence
c           0.44    1.08 %  substitute
c           0.30    0.73 %  preprocess
c           0.22    0.53 %  reduce
c           0.13    0.32 %  subsume
c           0.11    0.27 %  transitive
c           0.10    0.25 %  fastel
c           0.05    0.11 %  backbone
c           0.03    0.07 %  lucky
c           0.02    0.06 %  parse
c =============================================
c          40.78  100.00 %  total
c
c ---- [ statistics ] --------------------------------------------------------
c
c chronological:                         5878                3 %  conflicts
c conflicts:                           234297             5744.94 per second
c congruent:                             3797               10 %  variables
c decisions:                          4165504               17.78 per conflict
c eliminated:                           20319               56 %  variables
c factored:                              3903               11 %  variables
c fast_eliminated:                      11180               55 %  eliminated
c fast_strengthened:                       25                0 %  per strengthened
c fast_subsumed:                           71                0 %  per subsumed
c iterations:                              23                0 %  variables
c propagations:                     174460268          4277750    per second
c reductions:                              50             4686    interval
c reordered:                                7            33471    interval
c restarts:                             18541               13    interval
c strengthened:                          6000                0 %  checks
c substituted:                          10277               28 %  variables
c subsumed:                             16481                0 %  checks
c switched:                                 0                0    interval
c vivified:                             96381               14 %  checks
c
c ---- [ glue usage ] --------------------------------------------------------
c
c focused glue 1 used 418366 clauses 59.59% accumulated 59.59% tier1
c focused glue 2 used 137812 clauses 19.63% accumulated 79.22%
c focused glue 3 used  44913 clauses  6.40% accumulated 85.62%
c focused glue 4 used  25525 clauses  3.64% accumulated 89.25%
c focused glue 5 used  16261 clauses  2.32% accumulated 91.57% tier2
c
c ---- [ resources ] ---------------------------------------------------------
c
c maximum-resident-set-size:         31199232 bytes         30 MB
c process-time:                            41s              40.78 seconds
c
c ---- [ shutting down ] -----------------------------------------------------
c
c exit 20
